1 -810 735
2 -438 534
3 -64 -288
4 -472 -621
5 239 -359
6 631 287
7 20 -335
8 -969 -501
9 495 -560
10 -67 667
11 -727 -671
12 -577 846
13 -867 627
14 833 -827
15 -582 42
16 -79 242
17 -818 476
18 -591 -614
19 644 89
20 -603 109
21 287 376
22 509 -280
23 6 638
24 -245 -55
25 -823 -463
